unsat
( c1000
  c1001
  c1002
  c1003
  c1008
  c1009
  c1010
  c1012
  c1015
  c1018
  c1019
  c1020
  c1021
  c1025
  c1028
  c103
  c1030
  c1031
  c1033
  c1034
  c1039
  c1043
  c1045
  c1047
  c1050
  c1051
  c1052
  c1057
  c1058
  c1060
  c1063
  c1066
  c1067
  c1068
  c1069
  c107
  c1070
  c1071
  c1072
  c1080
  c1081
  c1082
  c1083
  c109
  c1090
  c1091
  c1093
  c1096
  c11
  c1100
  c1101
  c1102
  c1106
  c1109
  c1111
  c1112
  c1114
  c1115
  c1118
  c1120
  c1123
  c1124
  c1125
  c1130
  c1131
  c1133
  c1136
  c1139
  c114
  c1140
  c1141
  c1142
  c1143
  c1144
  c1145
  c115
  c1153
  c1154
  c1155
  c1156
  c1163
  c1165
  c1166
  c1169
  c1173
  c1174
  c1175
  c1179
  c1182
  c1184
  c1185
  c1187
  c1188
  c1191
  c1193
  c1196
  c1197
  c1198
  c1203
  c1204
  c1206
  c1209
  c1212
  c1213
  c1214
  c1215
  c1216
  c1217
  c1218
  c122
  c1226
  c1227
  c1234
  c1238
  c124
  c1242
  c1246
  c1250
  c1254
  c1255
  c1256
  c1257
  c1258
  c1261
  c1263
  c1264
  c1273
  c1274
  c1282
  c1283
  c1284
  c1285
  c1286
  c1287
  c1288
  c1289
  c1290
  c1291
  c1292
  c1293
  c1297
  c13
  c130
  c1301
  c1305
  c1309
  c131
  c1311
  c1312
  c1313
  c1314
  c1315
  c132
  c1320
  c1321
  c1322
  c1324
  c1326
  c1327
  c1330
  c1331
  c1332
  c1333
  c1337
  c134
  c1340
  c1342
  c1343
  c1345
  c1346
  c135
  c1351
  c1354
  c1355
  c1357
  c1359
  c1361
  c1362
  c1363
  c1364
  c1369
  c1370
  c1372
  c1374
  c1375
  c1378
  c1379
  c1380
  c1381
  c1382
  c1383
  c1384
  c1392
  c1393
  c1394
  c1395
  c1402
  c1403
  c1405
  c1408
  c1412
  c1413
  c1414
  c1418
  c1421
  c1423
  c1424
  c1426
  c1427
  c1430
  c1432
  c1435
  c1436
  c1437
  c144
  c1442
  c1443
  c1445
  c1447
  c1448
  c1451
  c1452
  c1453
  c1454
  c1455
  c1456
  c1457
  c1465
  c1466
  c1467
  c1468
  c147
  c1475
  c1478
  c1479
  c1480
  c1481
  c1484
  c1486
  c1487
  c1490
  c1491
  c1494
  c1496
  c1497
  c1499
  c1500
  c1503
  c1504
  c1505
  c1507
  c1508
  c1509
  c1510
  c1515
  c1516
  c1518
  c1519
  c1520
  c1521
  c1524
  c1525
  c1526
  c1527
  c1528
  c1529
  c1530
  c1538
  c1539
  c1546
  c1550
  c1554
  c1558
  c1562
  c1566
  c1567
  c1568
  c1569
  c157
  c1570
  c1573
  c1575
  c1576
  c1583
  c1585
  c1586
  c1594
  c1595
  c1596
  c1597
  c1598
  c1599
  c160
  c1600
  c1601
  c1602
  c1603
  c1604
  c1605
  c1609
  c1613
  c1617
  c1621
  c1623
  c1624
  c1625
  c1626
  c1629
  c1634
  c1636
  c1638
  c1639
  c1644
  c1645
  c1648
  c1649
  c1652
  c1654
  c1655
  c1657
  c1658
  c166
  c1663
  c1667
  c1669
  c1671
  c1673
  c1674
  c1675
  c1681
  c1682
  c1684
  c1685
  c1686
  c1687
  c1690
  c1691
  c1692
  c1693
  c1694
  c1695
  c1696
  c170
  c1704
  c1705
  c1706
  c1707
  c1710
  c1713
  c1715
  c1717
  c1719
  c1720
  c1723
  c1725
  c1726
  c1729
  c173
  c1730
  c1733
  c1735
  c1736
  c1738
  c1739
  c1742
  c1744
  c1746
  c1747
  c1748
  c1754
  c1755
  c1757
  c1758
  c1759
  c176
  c1760
  c1763
  c1764
  c1765
  c1766
  c1767
  c1768
  c1769
  c1777
  c1778
  c1779
  c1780
  c1786
  c1788
  c1790
  c1793
  c1796
  c1798
  c1799
  c1802
  c1803
  c1806
  c1808
  c1809
  c1811
  c1812
  c1815
  c1817
  c182
  c1820
  c1821
  c1827
  c1828
  c1830
  c1832
  c1833
  c1836
  c1837
  c1838
  c1839
  c1840
  c1841
  c1842
  c1850
  c1851
  c1858
  c1861
  c1862
  c1866
  c1869
  c187
  c1870
  c1874
  c1877
  c1878
  c1879
  c188
  c1880
  c1881
  c1882
  c1885
  c1887
  c1888
  c1895
  c1897
  c1898
  c1906
  c1907
  c1908
  c1909
  c1910
  c1911
  c1912
  c1913
  c1914
  c1915
  c1916
  c1917
  c1921
  c1924
  c1925
  c1929
  c1932
  c1933
  c1935
  c1936
  c1937
  c1938
  c1939
  c1941
  c1944
  c1946
  c1948
  c1949
  c195
  c1950
  c1951
  c1954
  c1955
  c1956
  c1957
  c1958
  c1960
  c1961
  c1964
  c1965
  c1966
  c1967
  c197
  c1970
  c1975
  c1979
  c1981
  c1982
  c1983
  c1985
  c1986
  c1987
  c1988
  c1991
  c1993
  c1994
  c1996
  c1997
  c1998
  c1999
  c2002
  c2003
  c2004
  c2005
  c2006
  c2007
  c2008
  c2016
  c2017
  c2019
  c2022
  c2025
  c2027
  c2029
  c203
  c2031
  c2032
  c2035
  c2037
  c2038
  c204
  c2041
  c2042
  c2045
  c2047
  c2048
  c205
  c2050
  c2051
  c2054
  c2056
  c2058
  c2059
  c2060
  c2066
  c2067
  c2069
  c207
  c2070
  c2071
  c2072
  c2075
  c2076
  c2077
  c2078
  c2079
  c208
  c2080
  c2081
  c2089
  c2090
  c2092
  c2095
  c2098
  c21
  c2100
  c2102
  c2104
  c2105
  c2108
  c2110
  c2111
  c2114
  c2115
  c2118
  c2120
  c2121
  c2123
  c2124
  c2127
  c2129
  c2131
  c2132
  c2133
  c2137
  c2139
  c2140
  c2142
  c2143
  c2144
  c2145
  c2148
  c2149
  c2150
  c2151
  c2152
  c2153
  c2154
  c2162
  c2163
  c217
  c2170
  c2174
  c2178
  c2182
  c2186
  c2190
  c2191
  c2192
  c2193
  c2194
  c2197
  c2199
  c220
  c2200
  c2207
  c2209
  c2210
  c2218
  c2219
  c2220
  c2221
  c2222
  c2223
  c2224
  c2225
  c2226
  c2227
  c2228
  c2229
  c2233
  c2237
  c2241
  c2245
  c2247
  c2248
  c2250
  c2253
  c2256
  c2258
  c2260
  c2262
  c2263
  c2266
  c2268
  c2269
  c2272
  c2273
  c2276
  c2278
  c2279
  c2282
  c2287
  c2290
  c2291
  c2293
  c2295
  c2297
  c2298
  c2299
  c23
  c230
  c2305
  c2306
  c2308
  c2309
  c2310
  c2311
  c2314
  c2315
  c2316
  c2317
  c2318
  c2319
  c2320
  c2328
  c2329
  c233
  c2331
  c2337
  c2339
  c2341
  c2344
  c2347
  c2349
  c2350
  c2354
  c2357
  c2359
  c2360
  c2362
  c2363
  c2366
  c2368
  c2371
  c2372
  c2378
  c2379
  c2381
  c2382
  c2383
  c2384
  c2387
  c2388
  c2389
  c239
  c2390
  c2391
  c2392
  c2393
  c2401
  c2402
  c2404
  c2410
  c2412
  c2414
  c2417
  c2420
  c2422
  c2423
  c2427
  c243
  c2430
  c2432
  c2433
  c2435
  c2436
  c2439
  c2441
  c2444
  c2445
  c2449
  c2451
  c2452
  c2454
  c2456
  c2457
  c246
  c2460
  c2461
  c2462
  c2463
  c2464
  c2465
  c2466
  c2474
  c2475
  c2481
  c2482
  c2485
  c2486
  c249
  c2490
  c2493
  c2494
  c2498
  c2501
  c2502
  c2504
  c2509
  c2511
  c2512
  c2519
  c2521
  c2522
  c2530
  c2531
  c2532
  c2533
  c2534
  c2535
  c2536
  c2537
  c2538
  c2539
  c2540
  c2541
  c2545
  c2548
  c2549
  c255
  c2553
  c2556
  c2557
  c2559
  c2560
  c2562
  c2563
  c2565
  c2568
  c2570
  c2571
  c2572
  c2574
  c2575
  c2579
  c2580
  c2581
  c2582
  c2583
  c2584
  c2585
  c2588
  c2590
  c2591
  c2594
  c2599
  c260
  c2602
  c2603
  c2605
  c2606
  c2607
  c2609
  c261
  c2610
  c2611
  c2612
  c2615
  c2617
  c2618
  c2620
  c2621
  c2622
  c2623
  c2626
  c2627
  c2628
  c2629
  c2630
  c2631
  c2632
  c2640
  c2641
  c2643
  c2649
  c2651
  c2653
  c2656
  c2659
  c2661
  c2662
  c2666
  c2669
  c2671
  c2672
  c2675
  c2678
  c268
  c2680
  c2683
  c2684
  c2690
  c2691
  c2693
  c2694
  c2695
  c2696
  c2699
  c270
  c2700
  c2701
  c2702
  c2703
  c2704
  c2705
  c2713
  c2714
  c2715
  c2716
  c2719
  c2722
  c2723
  c2724
  c2725
  c2726
  c2729
  c2732
  c2734
  c2735
  c2736
  c2739
  c2742
  c2744
  c2745
  c2748
  c2751
  c2753
  c2755
  c2756
  c2757
  c276
  c2761
  c2763
  c2764
  c2766
  c2768
  c2769
  c277
  c2772
  c2773
  c2774
  c2775
  c2776
  c2777
  c2778
  c278
  c2786
  c2787
  c2794
  c2797
  c2798
  c280
  c2802
  c2805
  c2806
  c281
  c2810
  c2813
  c2814
  c2817
  c2818
  c2823
  c2824
  c2831
  c2833
  c2834
  c2842
  c2843
  c2844
  c2845
  c2846
  c2847
  c2848
  c2849
  c2850
  c2851
  c2852
  c2853
  c2857
  c2860
  c2861
  c2865
  c2868
  c2869
  c2871
  c2872
  c2874
  c2880
  c2882
  c2884
  c2886
  c2887
  c2890
  c2892
  c2893
  c2897
  c29
  c290
  c2900
  c2902
  c2903
  c2906
  c2911
  c2914
  c2915
  c2917
  c2919
  c2921
  c2922
  c2923
  c2927
  c2929
  c2930
  c2938
  c2939
  c2940
  c2941
  c2942
  c2943
  c2944
  c2952
  c2953
  c2954
  c2955
  c2961
  c2963
  c2965
  c2968
  c2971
  c2973
  c2974
  c2978
  c298
  c2981
  c2983
  c2984
  c2987
  c2990
  c2992
  c2995
  c2996
  c3000
  c3002
  c3003
  c3011
  c3012
  c3013
  c3014
  c3015
  c3016
  c3017
  c302
  c3025
  c3026
  c3027
  c3028
  c3034
  c3036
  c3038
  c3041
  c3045
  c3046
  c3047
  c3051
  c3054
  c3056
  c3057
  c3059
  c306
  c3060
  c3063
  c3065
  c3068
  c3069
  c3073
  c3075
  c3076
  c3084
  c3085
  c3086
  c3087
  c3088
  c3089
  c3090
  c3098
  c3099
  c310
  c3106
  c3110
  c3114
  c3117
  c3118
  c3122
  c3125
  c3126
  c3127
  c3128
  c3133
  c3136
  c314
  c3143
  c3145
  c3146
  c3154
  c3155
  c3156
  c3157
  c3158
  c3159
  c3160
  c3161
  c3162
  c3163
  c3164
  c3165
  c3169
  c3173
  c3177
  c318
  c3180
  c3181
  c3183
  c3184
  c3185
  c3193
  c3194
  c3195
  c3203
  c3204
  c3209
  c3212
  c3214
  c3215
  c3217
  c3218
  c3223
  c3226
  c3227
  c3229
  c3231
  c3233
  c3234
  c3235
  c3239
  c3241
  c3242
  c3244
  c3250
  c3251
  c3252
  c3253
  c3254
  c3255
  c3256
  c3264
  c3265
  c3266
  c3273
  c3275
  c3277
  c3280
  c3283
  c3285
  c3286
  c3290
  c3293
  c3295
  c3296
  c3298
  c3299
  c3302
  c3304
  c3307
  c3308
  c3312
  c3314
  c3315
  c3323
  c3324
  c3325
  c3326
  c3327
  c3328
  c3329
  c3337
  c3338
  c3339
  c3347
  c3348
  c3350
  c3351
  c3353
  c3356
  c3358
  c3359
  c3362
  c3363
  c3366
  c3368
  c3369
  c3371
  c3372
  c3375
  c3377
  c3379
  c3380
  c3381
  c3382
  c3385
  c3387
  c3388
  c3396
  c3397
  c3398
  c3399
  c3400
  c3401
  c3402
  c3410
  c3411
  c3418
  c3421
  c3422
  c3426
  c3429
  c3430
  c3434
  c3437
  c3438
  c3440
  c3441
  c3445
  c3447
  c3455
  c3457
  c3458
  c3466
  c3467
  c3468
  c3469
  c3470
  c3471
  c3472
  c3473
  c3474
  c3475
  c3476
  c3477
  c348
  c3481
  c3484
  c3485
  c3489
  c349
  c3492
  c3493
  c3495
  c3496
  c35
  c350
  c3505
  c3507
  c351
  c3515
  c3516
  c352
  c3520
  c3521
  c3526
  c3527
  c3529
  c353
  c3530
  c3535
  c3538
  c3539
  c3541
  c3543
  c3544
  c3545
  c3546
  c3547
  c3551
  c3553
  c3554
  c3555
  c3556
  c3558
  c3562
  c3563
  c3564
  c3565
  c3566
  c3567
  c3568
  c357
  c3576
  c3577
  c3586
  c3587
  c3589
  c3592
  c3595
  c3597
  c3598
  c36
  c3601
  c3602
  c3605
  c3607
  c3608
  c361
  c3610
  c3611
  c3614
  c3616
  c3617
  c3619
  c3620
  c3624
  c3626
  c3627
  c3628
  c3629
  c3631
  c3635
  c3636
  c3637
  c3638
  c3639
  c3640
  c3641
  c3649
  c365
  c3650
  c3659
  c3660
  c3662
  c3665
  c3668
  c3670
  c3671
  c3674
  c3675
  c3678
  c3680
  c3681
  c3683
  c3684
  c3687
  c3689
  c369
  c3690
  c3692
  c3693
  c3697
  c3699
  c37
  c3700
  c3701
  c3702
  c3704
  c3708
  c3709
  c3710
  c3711
  c3712
  c3713
  c3714
  c3722
  c3723
  c373
  c3730
  c3733
  c3734
  c3738
  c3741
  c3742
  c3746
  c3749
  c375
  c3750
  c3757
  c3759
  c3760
  c3767
  c3769
  c3770
  c3778
  c3779
  c378
  c3780
  c3781
  c3782
  c3783
  c3784
  c3785
  c3786
  c3787
  c3788
  c3789
  c3793
  c3796
  c3797
  c38
  c3801
  c3804
  c3805
  c3807
  c3808
  c3817
  c3818
  c3827
  c3828
  c3836
  c3839
  c3841
  c3842
  c3847
  c3850
  c3851
  c3856
  c3858
  c3859
  c3860
  c3863
  c3865
  c3866
  c3867
  c3868
  c3870
  c3874
  c3875
  c3876
  c3877
  c3878
  c3879
  c388
  c3880
  c3888
  c3889
  c3898
  c39
  c3901
  c3904
  c3908
  c3909
  c391
  c3917
  c3920
  c3922
  c3923
  c3929
  c3931
  c3932
  c3936
  c3938
  c3939
  c3940
  c3941
  c3943
  c3947
  c3948
  c3949
  c395
  c3950
  c3951
  c3952
  c3953
  c396
  c3961
  c3962
  c397
  c3971
  c3973
  c3981
  c3982
  c3990
  c3993
  c3995
  c3996
  c40
  c4002
  c4004
  c4005
  c4009
  c401
  c4011
  c4012
  c4013
  c4014
  c4016
  c4020
  c4021
  c4022
  c4023
  c4024
  c4025
  c4026
  c4034
  c4035
  c404
  c4042
  c4045
  c4046
  c4050
  c4053
  c4054
  c4058
  c4061
  c4062
  c4069
  c407
  c4071
  c4072
  c4079
  c4081
  c4082
  c4090
  c4091
  c4092
  c4093
  c4094
  c4095
  c4096
  c4097
  c4098
  c4099
  c41
  c4100
  c4101
  c4105
  c4108
  c4109
  c4113
  c4116
  c4117
  c4120
  c4129
  c4139
  c4148
  c415
  c4150
  c4151
  c4153
  c4154
  c4159
  c4162
  c4163
  c4168
  c4175
  c4179
  c4180
  c4182
  c4183
  c4186
  c4187
  c4188
  c4189
  c419
  c4190
  c4191
  c4192
  c42
  c4201
  c421
  c4210
  c4220
  c4229
  c4231
  c4232
  c4234
  c4235
  c4241
  c4248
  c4252
  c4253
  c4255
  c4256
  c4259
  c426
  c4260
  c4261
  c4262
  c4263
  c4264
  c4265
  c427
  c4274
  c4283
  c4293
  c43
  c4302
  c4304
  c4305
  c4307
  c4308
  c4314
  c4321
  c4325
  c4326
  c4328
  c4329
  c4332
  c4333
  c4334
  c4335
  c4336
  c4337
  c4338
  c434
  c4346
  c4347
  c4354
  c4357
  c4358
  c436
  c4362
  c4365
  c4366
  c4370
  c4373
  c4374
  c4381
  c4383
  c4384
  c4391
  c4393
  c4394
  c44
  c4402
  c4403
  c4404
  c4405
  c4406
  c4407
  c4408
  c4409
  c4410
  c4411
  c4412
  c4413
  c4417
  c442
  c4420
  c4421
  c4425
  c4428
  c4429
  c443
  c4432
  c444
  c4441
  c4451
  c446
  c4460
  c4462
  c447
  c4471
  c4474
  c4475
  c4480
  c4487
  c4491
  c4492
  c4493
  c4494
  c4495
  c4498
  c4499
  c45
  c4500
  c4501
  c4502
  c4503
  c4504
  c4513
  c4522
  c4532
  c4541
  c4543
  c4553
  c456
  c4560
  c4564
  c4565
  c4566
  c4567
  c4568
  c4571
  c4572
  c4573
  c4574
  c4575
  c4576
  c4577
  c4586
  c459
  c4595
  c4605
  c4614
  c4616
  c4626
  c4633
  c4637
  c4638
  c4639
  c4640
  c4641
  c4644
  c4645
  c4646
  c4647
  c4648
  c4649
  c4650
  c4658
  c4659
  c4666
  c4669
  c4670
  c4674
  c4677
  c4678
  c4682
  c4685
  c4686
  c469
  c4693
  c4695
  c4696
  c4703
  c4705
  c4706
  c4714
  c4715
  c4716
  c4717
  c4718
  c4719
  c472
  c4720
  c4721
  c4722
  c4723
  c4724
  c4725
  c4729
  c4733
  c4737
  c4741
  c4743
  c4753
  c476
  c4763
  c477
  c4772
  c478
  c4783
  c4787
  c4792
  c4803
  c4804
  c4805
  c4806
  c4807
  c4810
  c4811
  c4812
  c4814
  c4815
  c482
  c4824
  c4834
  c4844
  c485
  c4853
  c4865
  c4876
  c4877
  c4878
  c4879
  c488
  c4880
  c4883
  c4884
  c4885
  c4887
  c4888
  c4897
  c49
  c4907
  c4917
  c4926
  c4938
  c494
  c4949
  c4950
  c4951
  c4952
  c4953
  c4956
  c4957
  c4958
  c4960
  c4961
  c4970
  c4971
  c4978
  c4982
  c4986
  c499
  c4990
  c4994
  c4998
  c500
  c5005
  c5007
  c5011
  c5015
  c5017
  c5018
  c5026
  c5027
  c5028
  c5029
  c5030
  c5031
  c5032
  c5033
  c5034
  c5035
  c5036
  c5037
  c5056
  c5066
  c507
  c5076
  c5086
  c509
  c5104
  c5113
  c5122
  c5137
  c5147
  c515
  c5157
  c516
  c5167
  c517
  c5177
  c5186
  c519
  c5195
  c520
  c521
  c5210
  c5220
  c5230
  c5240
  c5250
  c5259
  c5268
  c5282
  c529
  c5290
  c5294
  c5298
  c53
  c5302
  c5306
  c5310
  c5313
  c5314
  c5315
  c5317
  c5319
  c532
  c5320
  c5339
  c5340
  c5341
  c5342
  c5343
  c5344
  c5345
  c5346
  c5347
  c5348
  c5349
  c5351
  c5355
  c5359
  c5362
  c5366
  c5370
  c5375
  c5379
  c5383
  c5387
  c5391
  c5395
  c5398
  c5399
  c5402
  c5403
  c5406
  c5407
  c5410
  c5411
  c5414
  c5415
  c5418
  c5419
  c542
  c5422
  c5423
  c5424
  c5426
  c5427
  c5428
  c5430
  c5431
  c5432
  c5434
  c5435
  c5436
  c5438
  c5439
  c5440
  c5442
  c5443
  c5444
  c5446
  c5447
  c5448
  c545
  c5450
  c5451
  c5452
  c5454
  c5455
  c5456
  c5458
  c5459
  c5460
  c5462
  c5463
  c5464
  c5466
  c5467
  c5468
  c5470
  c5471
  c5472
  c5474
  c5475
  c5476
  c5478
  c5479
  c5480
  c5482
  c5483
  c5484
  c5486
  c5487
  c5488
  c549
  c5490
  c5491
  c5492
  c5494
  c5495
  c5496
  c5498
  c5499
  c550
  c5500
  c5502
  c5503
  c5504
  c5506
  c5507
  c5508
  c551
  c5510
  c5511
  c5512
  c5514
  c5515
  c5516
  c5518
  c5519
  c5520
  c5522
  c5523
  c5524
  c5526
  c5527
  c5528
  c5530
  c5531
  c5532
  c5534
  c5535
  c5536
  c5538
  c5539
  c5540
  c5542
  c5543
  c5544
  c5546
  c5547
  c5548
  c555
  c5550
  c5551
  c5552
  c5554
  c5555
  c5556
  c5557
  c5558
  c5559
  c5560
  c5561
  c5563
  c5564
  c5565
  c5566
  c5567
  c5568
  c5569
  c5570
  c5572
  c5573
  c5575
  c5576
  c558
  c561
  c567
  c57
  c572
  c573
  c580
  c582
  c588
  c589
  c590
  c592
  c593
  c6
  c602
  c603
  c61
  c610
  c614
  c618
  c622
  c626
  c63
  c630
  c64
  c66
  c660
  c661
  c662
  c663
  c664
  c665
  c669
  c673
  c677
  c681
  c685
  c687
  c688
  c690
  c699
  c700
  c703
  c707
  c708
  c709
  c713
  c716
  c719
  c721
  c722
  c727
  c731
  c734
  c738
  c739
  c740
  c746
  c748
  c751
  c754
  c755
  c756
  c757
  c758
  c759
  c76
  c760
  c768
  c769
  c771
  c780
  c781
  c784
  c788
  c789
  c79
  c790
  c794
  c797
  c8
  c800
  c802
  c803
  c807
  c811
  c812
  c813
  c819
  c821
  c824
  c827
  c828
  c829
  c830
  c831
  c832
  c833
  c841
  c842
  c844
  c85
  c851
  c852
  c854
  c857
  c861
  c862
  c863
  c867
  c870
  c873
  c875
  c876
  c880
  c884
  c885
  c886
  c89
  c892
  c894
  c897
  c900
  c901
  c902
  c903
  c904
  c905
  c906
  c914
  c915
  c92
  c922
  c926
  c930
  c934
  c938
  c94
  c942
  c943
  c944
  c945
  c946
  c949
  c95
  c951
  c952
  c959
  c961
  c970
  c971
  c972
  c973
  c974
  c975
  c976
  c977
  c978
  c979
  c980
  c981
  c985
  c989
  c993
  c997
  c999 )
